p tw 496 1664
1 33
2 34
3 35
4 36
5 37
6 38
7 39
8 40
9 41
10 42
11 43
12 44
13 45
14 46
15 47
16 48
17 49
18 50
19 51
20 52
21 53
22 54
23 55
24 56
25 57
26 58
27 59
28 60
29 61
30 62
31 63
32 64
33 73
33 74
33 75
33 76
34 81
34 131
34 133
34 134
35 69
35 70
35 71
35 72
36 66
36 78
36 109
36 111
37 73
37 83
37 87
37 88
38 117
38 120
38 121
38 122
39 133
39 138
39 140
39 141
40 118
40 124
40 135
40 137
41 83
41 84
41 85
41 86
42 94
42 99
42 101
42 102
43 93
43 96
43 97
43 98
44 65
44 66
44 67
44 68
45 70
45 123
45 126
45 127
46 89
46 90
46 91
46 92
47 77
47 80
47 81
47 82
48 71
48 104
48 142
48 144
49 90
49 117
49 118
49 119
50 87
50 113
50 135
50 136
51 67
51 121
51 138
51 139
52 101
52 123
52 124
52 125
53 80
53 96
53 99
53 100
54 126
54 140
54 142
54 143
55 74
55 106
55 109
55 110
56 89
56 112
56 115
56 116
57 65
57 93
57 94
57 95
58 75
58 112
58 113
58 114
59 91
59 120
59 128
59 130
60 103
60 115
60 128
60 129
61 97
61 103
61 104
61 105
62 84
62 106
62 107
62 108
63 69
63 77
63 78
63 79
64 85
64 107
64 131
64 132
65 66
65 67
65 68
65 93
65 94
65 95
66 67
66 68
66 78
66 109
66 111
67 68
67 121
67 138
67 139
68 145
68 146
68 147
68 148
69 70
69 71
69 72
69 77
69 78
69 79
70 71
70 72
70 123
70 126
70 127
71 72
71 104
71 142
71 144
72 149
72 150
72 151
72 152
73 74
73 75
73 76
73 83
73 87
73 88
74 75
74 76
74 106
74 109
74 110
75 76
75 112
75 113
75 114
76 153
76 154
76 155
76 156
77 78
77 79
77 80
77 81
77 82
78 79
78 109
78 111
79 149
79 157
79 158
79 159
80 81
80 82
80 96
80 99
80 100
81 82
81 131
81 133
81 134
82 157
82 160
82 161
82 162
83 84
83 85
83 86
83 87
83 88
84 85
84 86
84 106
84 107
84 108
85 86
85 107
85 131
85 132
86 163
86 164
86 165
86 166
87 88
87 113
87 135
87 136
88 153
88 163
88 167
88 168
89 90
89 91
89 92
89 112
89 115
89 116
90 91
90 92
90 117
90 118
90 119
91 92
91 120
91 128
91 130
92 169
92 170
92 171
92 172
93 94
93 95
93 96
93 97
93 98
94 95
94 99
94 101
94 102
95 145
95 173
95 174
95 175
96 97
96 98
96 99
96 100
97 98
97 103
97 104
97 105
98 173
98 176
98 177
98 178
99 100
99 101
99 102
100 160
100 176
100 179
100 180
101 102
101 123
101 124
101 125
102 174
102 179
102 181
102 182
103 104
103 105
103 115
103 128
103 129
104 105
104 142
104 144
105 177
105 183
105 184
105 185
106 107
106 108
106 109
106 110
107 108
107 131
107 132
108 164
108 186
108 187
108 188
109 110
109 111
110 154
110 186
110 189
110 190
111 146
111 158
111 189
111 191
112 113
112 114
112 115
112 116
113 114
113 135
113 136
114 155
114 192
114 193
114 194
115 116
115 128
115 129
116 169
116 192
116 195
116 196
117 118
117 119
117 120
117 121
117 122
118 119
118 124
118 135
118 137
119 170
119 197
119 198
119 199
120 121
120 122
120 128
120 130
121 122
121 138
121 139
122 197
122 200
122 201
122 202
123 124
123 125
123 126
123 127
124 125
124 135
124 137
125 181
125 203
125 204
125 205
126 127
126 140
126 142
126 143
127 150
127 203
127 206
127 207
128 129
128 130
129 183
129 195
129 208
129 209
130 171
130 200
130 208
130 210
131 132
131 133
131 134
132 165
132 187
132 211
132 212
133 134
133 138
133 140
133 141
134 161
134 211
134 213
134 214
135 136
135 137
136 167
136 193
136 215
136 216
137 198
137 204
137 215
137 217
138 139
138 140
138 141
139 147
139 201
139 218
139 219
140 141
140 142
140 143
141 213
141 218
141 220
141 221
142 143
142 144
143 206
143 220
143 222
143 223
144 151
144 184
144 222
144 224
145 146
145 147
145 148
145 173
145 174
145 175
146 147
146 148
146 158
146 189
146 191
147 148
147 201
147 218
147 219
148 225
148 226
148 227
148 228
149 150
149 151
149 152
149 157
149 158
149 159
150 151
150 152
150 203
150 206
150 207
151 152
151 184
151 222
151 224
152 229
152 230
152 231
152 232
153 154
153 155
153 156
153 163
153 167
153 168
154 155
154 156
154 186
154 189
154 190
155 156
155 192
155 193
155 194
156 233
156 234
156 235
156 236
157 158
157 159
157 160
157 161
157 162
158 159
158 189
158 191
159 229
159 237
159 238
159 239
160 161
160 162
160 176
160 179
160 180
161 162
161 211
161 213
161 214
162 237
162 240
162 241
162 242
163 164
163 165
163 166
163 167
163 168
164 165
164 166
164 186
164 187
164 188
165 166
165 187
165 211
165 212
166 243
166 244
166 245
166 246
167 168
167 193
167 215
167 216
168 233
168 243
168 247
168 248
169 170
169 171
169 172
169 192
169 195
169 196
170 171
170 172
170 197
170 198
170 199
171 172
171 200
171 208
171 210
172 249
172 250
172 251
172 252
173 174
173 175
173 176
173 177
173 178
174 175
174 179
174 181
174 182
175 225
175 253
175 254
175 255
176 177
176 178
176 179
176 180
177 178
177 183
177 184
177 185
178 253
178 256
178 257
178 258
179 180
179 181
179 182
180 240
180 256
180 259
180 260
181 182
181 203
181 204
181 205
182 254
182 259
182 261
182 262
183 184
183 185
183 195
183 208
183 209
184 185
184 222
184 224
185 257
185 263
185 264
185 265
186 187
186 188
186 189
186 190
187 188
187 211
187 212
188 244
188 266
188 267
188 268
189 190
189 191
190 234
190 266
190 269
190 270
191 226
191 238
191 269
191 271
192 193
192 194
192 195
192 196
193 194
193 215
193 216
194 235
194 272
194 273
194 274
195 196
195 208
195 209
196 249
196 272
196 275
196 276
197 198
197 199
197 200
197 201
197 202
198 199
198 204
198 215
198 217
199 250
199 277
199 278
199 279
200 201
200 202
200 208
200 210
201 202
201 218
201 219
202 277
202 280
202 281
202 282
203 204
203 205
203 206
203 207
204 205
204 215
204 217
205 261
205 283
205 284
205 285
206 207
206 220
206 222
206 223
207 230
207 283
207 286
207 287
208 209
208 210
209 263
209 275
209 288
209 289
210 251
210 280
210 288
210 290
211 212
211 213
211 214
212 245
212 267
212 291
212 292
213 214
213 218
213 220
213 221
214 241
214 291
214 293
214 294
215 216
215 217
216 247
216 273
216 295
216 296
217 278
217 284
217 295
217 297
218 219
218 220
218 221
219 227
219 281
219 298
219 299
220 221
220 222
220 223
221 293
221 298
221 300
221 301
222 223
222 224
223 286
223 300
223 302
223 303
224 231
224 264
224 302
224 304
225 226
225 227
225 228
225 253
225 254
225 255
226 227
226 228
226 238
226 269
226 271
227 228
227 281
227 298
227 299
228 305
228 306
228 307
228 308
229 230
229 231
229 232
229 237
229 238
229 239
230 231
230 232
230 283
230 286
230 287
231 232
231 264
231 302
231 304
232 309
232 310
232 311
232 312
233 234
233 235
233 236
233 243
233 247
233 248
234 235
234 236
234 266
234 269
234 270
235 236
235 272
235 273
235 274
236 313
236 314
236 315
236 316
237 238
237 239
237 240
237 241
237 242
238 239
238 269
238 271
239 309
239 317
239 318
239 319
240 241
240 242
240 256
240 259
240 260
241 242
241 291
241 293
241 294
242 317
242 320
242 321
242 322
243 244
243 245
243 246
243 247
243 248
244 245
244 246
244 266
244 267
244 268
245 246
245 267
245 291
245 292
246 323
246 324
246 325
246 326
247 248
247 273
247 295
247 296
248 313
248 323
248 327
248 328
249 250
249 251
249 252
249 272
249 275
249 276
250 251
250 252
250 277
250 278
250 279
251 252
251 280
251 288
251 290
252 329
252 330
252 331
252 332
253 254
253 255
253 256
253 257
253 258
254 255
254 259
254 261
254 262
255 305
255 333
255 334
255 335
256 257
256 258
256 259
256 260
257 258
257 263
257 264
257 265
258 333
258 336
258 337
258 338
259 260
259 261
259 262
260 320
260 336
260 339
260 340
261 262
261 283
261 284
261 285
262 334
262 339
262 341
262 342
263 264
263 265
263 275
263 288
263 289
264 265
264 302
264 304
265 337
265 343
265 344
265 345
266 267
266 268
266 269
266 270
267 268
267 291
267 292
268 324
268 346
268 347
268 348
269 270
269 271
270 314
270 346
270 349
270 350
271 306
271 318
271 349
271 351
272 273
272 274
272 275
272 276
273 274
273 295
273 296
274 315
274 352
274 353
274 354
275 276
275 288
275 289
276 329
276 352
276 355
276 356
277 278
277 279
277 280
277 281
277 282
278 279
278 284
278 295
278 297
279 330
279 357
279 358
279 359
280 281
280 282
280 288
280 290
281 282
281 298
281 299
282 357
282 360
282 361
282 362
283 284
283 285
283 286
283 287
284 285
284 295
284 297
285 341
285 363
285 364
285 365
286 287
286 300
286 302
286 303
287 310
287 363
287 366
287 367
288 289
288 290
289 343
289 355
289 368
289 369
290 331
290 360
290 368
290 370
291 292
291 293
291 294
292 325
292 347
292 371
292 372
293 294
293 298
293 300
293 301
294 321
294 371
294 373
294 374
295 296
295 297
296 327
296 353
296 375
296 376
297 358
297 364
297 375
297 377
298 299
298 300
298 301
299 307
299 361
299 378
299 379
300 301
300 302
300 303
301 373
301 378
301 380
301 381
302 303
302 304
303 366
303 380
303 382
303 383
304 311
304 344
304 382
304 384
305 306
305 307
305 308
305 333
305 334
305 335
306 307
306 308
306 318
306 349
306 351
307 308
307 361
307 378
307 379
308 385
308 386
308 387
308 388
309 310
309 311
309 312
309 317
309 318
309 319
310 311
310 312
310 363
310 366
310 367
311 312
311 344
311 382
311 384
312 389
312 390
312 391
312 392
313 314
313 315
313 316
313 323
313 327
313 328
314 315
314 316
314 346
314 349
314 350
315 316
315 352
315 353
315 354
316 393
316 394
316 395
316 396
317 318
317 319
317 320
317 321
317 322
318 319
318 349
318 351
319 389
319 397
319 398
319 399
320 321
320 322
320 336
320 339
320 340
321 322
321 371
321 373
321 374
322 397
322 400
322 401
322 402
323 324
323 325
323 326
323 327
323 328
324 325
324 326
324 346
324 347
324 348
325 326
325 347
325 371
325 372
326 403
326 404
326 405
326 406
327 328
327 353
327 375
327 376
328 393
328 403
328 407
328 408
329 330
329 331
329 332
329 352
329 355
329 356
330 331
330 332
330 357
330 358
330 359
331 332
331 360
331 368
331 370
332 409
332 410
332 411
332 412
333 334
333 335
333 336
333 337
333 338
334 335
334 339
334 341
334 342
335 385
335 413
335 414
335 415
336 337
336 338
336 339
336 340
337 338
337 343
337 344
337 345
338 413
338 416
338 417
338 418
339 340
339 341
339 342
340 400
340 416
340 419
340 420
341 342
341 363
341 364
341 365
342 414
342 419
342 421
342 422
343 344
343 345
343 355
343 368
343 369
344 345
344 382
344 384
345 417
345 423
345 424
345 425
346 347
346 348
346 349
346 350
347 348
347 371
347 372
348 404
348 426
348 427
348 428
349 350
349 351
350 394
350 426
350 429
350 430
351 386
351 398
351 429
351 431
352 353
352 354
352 355
352 356
353 354
353 375
353 376
354 395
354 432
354 433
354 434
355 356
355 368
355 369
356 409
356 432
356 435
356 436
357 358
357 359
357 360
357 361
357 362
358 359
358 364
358 375
358 377
359 410
359 437
359 438
359 439
360 361
360 362
360 368
360 370
361 362
361 378
361 379
362 437
362 440
362 441
362 442
363 364
363 365
363 366
363 367
364 365
364 375
364 377
365 421
365 443
365 444
365 445
366 367
366 380
366 382
366 383
367 390
367 443
367 446
367 447
368 369
368 370
369 423
369 435
369 448
369 449
370 411
370 440
370 448
370 450
371 372
371 373
371 374
372 405
372 427
372 451
372 452
373 374
373 378
373 380
373 381
374 401
374 451
374 453
374 454
375 376
375 377
376 407
376 433
376 455
376 456
377 438
377 444
377 455
377 457
378 379
378 380
378 381
379 387
379 441
379 458
379 459
380 381
380 382
380 383
381 453
381 458
381 460
381 461
382 383
382 384
383 446
383 460
383 462
383 463
384 391
384 424
384 462
384 464
385 386
385 387
385 388
385 413
385 414
385 415
386 387
386 388
386 398
386 429
386 431
387 388
387 441
387 458
387 459
388 485
389 390
389 391
389 392
389 397
389 398
389 399
390 391
390 392
390 443
390 446
390 447
391 392
391 424
391 462
391 464
392 494
393 394
393 395
393 396
393 403
393 407
393 408
394 395
394 396
394 426
394 429
394 430
395 396
395 432
395 433
395 434
396 496
397 398
397 399
397 400
397 401
397 402
398 399
398 429
398 431
399 466
400 401
400 402
400 416
400 419
400 420
401 402
401 451
401 453
401 454
402 482
403 404
403 405
403 406
403 407
403 408
404 405
404 406
404 426
404 427
404 428
405 406
405 427
405 451
405 452
406 488
407 408
407 433
407 455
407 456
408 492
409 410
409 411
409 412
409 432
409 435
409 436
410 411
410 412
410 437
410 438
410 439
411 412
411 440
411 448
411 450
412 483
413 414
413 415
413 416
413 417
413 418
414 415
414 419
414 421
414 422
415 472
416 417
416 418
416 419
416 420
417 418
417 423
417 424
417 425
418 486
419 420
419 421
419 422
420 476
421 422
421 443
421 444
421 445
422 487
423 424
423 425
423 435
423 448
423 449
424 425
424 462
424 464
425 468
426 427
426 428
426 429
426 430
427 428
427 451
427 452
428 467
429 430
429 431
430 474
431 493
432 433
432 434
432 435
432 436
433 434
433 455
433 456
434 471
435 436
435 448
435 449
436 473
437 438
437 439
437 440
437 441
437 442
438 439
438 444
438 455
438 457
439 480
440 441
440 442
440 448
440 450
441 442
441 458
441 459
442 491
443 444
443 445
443 446
443 447
444 445
444 455
444 457
445 477
446 447
446 460
446 462
446 463
447 484
448 449
448 450
449 469
450 470
451 452
451 453
451 454
452 465
453 454
453 458
453 460
453 461
454 495
455 456
455 457
456 479
457 489
458 459
458 460
458 461
459 478
460 461
460 462
460 463
461 490
462 463
462 464
463 475
464 481
